4 49 48 15 41 58 68 65 21 66 35 32 37 5 92 77 40 16 95 53 93 97 27 2 7 24 43 25 70 36 73 45 56 28 9 89 71 79 20 84 72 54 57 91 67 10 63 55 17 85 38 69 96 76 0 52 11 29 62 8 51 99 88 74 39 47 34 13 90 33 82 23 59 94 46 1 42 30 6 75 98 14 80 19 3 60 12 31 22 18 81 61 50 83 44 87 26 78 86 64